\ENCODING=ISO-8859-1
\Problem name: IloCplex

Minimize
 obj1:
Subject To
 c1:  20 s_0_10 + 20 s_1_10 + 20 s_2_10 + 20 s_3_10 + 20 s_4_10 + 20 s_5_10
      + 20 s_6_10 + 20 s_7_10 + 20 s_8_10 + 20 s_9_10 <= 100
 c2:  20 s_0_11 + 20 s_1_11 + 20 s_2_11 + 20 s_3_11 + 20 s_4_11 + 20 s_5_11
      + 20 s_6_11 + 20 s_7_11 + 20 s_8_11 + 20 s_9_11 <= 100
 c3:  20 s_0_12 + 20 s_1_12 + 20 s_2_12 + 20 s_3_12 + 20 s_4_12 + 20 s_5_12
      + 20 s_6_12 + 20 s_7_12 + 20 s_8_12 + 20 s_9_12 <= 100
 c4:  20 s_0_13 + 20 s_1_13 + 20 s_2_13 + 20 s_3_13 + 20 s_4_13 + 20 s_5_13
      + 20 s_6_13 + 20 s_7_13 + 20 s_8_13 + 20 s_9_13 <= 100
 c5:  20 s_0_14 + 20 s_1_14 + 20 s_2_14 + 20 s_3_14 + 20 s_4_14 + 20 s_5_14
      + 20 s_6_14 + 20 s_7_14 + 20 s_8_14 + 20 s_9_14 <= 100
 c6:  20 s_0_15 + 20 s_1_15 + 20 s_2_15 + 20 s_3_15 + 20 s_4_15 + 20 s_5_15
      + 20 s_6_15 + 20 s_7_15 + 20 s_8_15 + 20 s_9_15 <= 100
 c7:  20 s_0_16 + 20 s_1_16 + 20 s_2_16 + 20 s_3_16 + 20 s_4_16 + 20 s_5_16
      + 20 s_6_16 + 20 s_7_16 + 20 s_8_16 + 20 s_9_16 <= 100
 c8:  20 s_0_17 + 20 s_1_17 + 20 s_2_17 + 20 s_3_17 + 20 s_4_17 + 20 s_5_17
      + 20 s_6_17 + 20 s_7_17 + 20 s_8_17 + 20 s_9_17 <= 100
 c9:  20 s_0_18 + 20 s_1_18 + 20 s_2_18 + 20 s_3_18 + 20 s_4_18 + 20 s_5_18
      + 20 s_6_18 + 20 s_7_18 + 20 s_8_18 + 20 s_9_18 <= 100
 c10: 20 s_0_19 + 20 s_1_19 + 20 s_2_19 + 20 s_3_19 + 20 s_4_19 + 20 s_5_19
      + 20 s_6_19 + 20 s_7_19 + 20 s_8_19 + 20 s_9_19 <= 100
 c11: 20 s_10_20 + 20 s_11_20 + 20 s_12_20 + 20 s_13_20 + 20 s_14_20
      + 20 s_15_20 + 20 s_16_20 + 20 s_17_20 + 20 s_18_20 + 20 s_19_20 <= 100
 c12: 20 s_10_21 + 20 s_11_21 + 20 s_12_21 + 20 s_13_21 + 20 s_14_21
      + 20 s_15_21 + 20 s_16_21 + 20 s_17_21 + 20 s_18_21 + 20 s_19_21 <= 100
 c13: 20 s_10_22 + 20 s_11_22 + 20 s_12_22 + 20 s_13_22 + 20 s_14_22
      + 20 s_15_22 + 20 s_16_22 + 20 s_17_22 + 20 s_18_22 + 20 s_19_22 <= 100
 c14: 20 s_10_23 + 20 s_11_23 + 20 s_12_23 + 20 s_13_23 + 20 s_14_23
      + 20 s_15_23 + 20 s_16_23 + 20 s_17_23 + 20 s_18_23 + 20 s_19_23 <= 100
 c15: 20 s_10_24 + 20 s_11_24 + 20 s_12_24 + 20 s_13_24 + 20 s_14_24
      + 20 s_15_24 + 20 s_16_24 + 20 s_17_24 + 20 s_18_24 + 20 s_19_24 <= 100
 c16: 20 s_10_25 + 20 s_11_25 + 20 s_12_25 + 20 s_13_25 + 20 s_14_25
      + 20 s_15_25 + 20 s_16_25 + 20 s_17_25 + 20 s_18_25 + 20 s_19_25 <= 100
 c17: 20 s_10_26 + 20 s_11_26 + 20 s_12_26 + 20 s_13_26 + 20 s_14_26
      + 20 s_15_26 + 20 s_16_26 + 20 s_17_26 + 20 s_18_26 + 20 s_19_26 <= 100
 c18: 20 s_10_27 + 20 s_11_27 + 20 s_12_27 + 20 s_13_27 + 20 s_14_27
      + 20 s_15_27 + 20 s_16_27 + 20 s_17_27 + 20 s_18_27 + 20 s_19_27 <= 100
 c19: 20 s_10_28 + 20 s_11_28 + 20 s_12_28 + 20 s_13_28 + 20 s_14_28
      + 20 s_15_28 + 20 s_16_28 + 20 s_17_28 + 20 s_18_28 + 20 s_19_28 <= 100
 c20: 20 s_10_29 + 20 s_11_29 + 20 s_12_29 + 20 s_13_29 + 20 s_14_29
      + 20 s_15_29 + 20 s_16_29 + 20 s_17_29 + 20 s_18_29 + 20 s_19_29 <= 100
Bounds
 0 <= s_0_10 <= 1
 0 <= s_0_11 <= 1
 0 <= s_0_12 <= 1
 0 <= s_0_13 <= 1
 0 <= s_0_14 <= 1
 0 <= s_0_15 <= 1
 0 <= s_0_16 <= 1
 0 <= s_0_17 <= 1
 0 <= s_0_18 <= 1
 0 <= s_0_19 <= 1
 0 <= s_1_10 <= 1
 0 <= s_1_11 <= 1
 0 <= s_1_12 <= 1
 0 <= s_1_13 <= 1
 0 <= s_1_14 <= 1
 0 <= s_1_15 <= 1
 0 <= s_1_16 <= 1
 0 <= s_1_17 <= 1
 0 <= s_1_18 <= 1
 0 <= s_1_19 <= 1
 0 <= s_2_10 <= 1
 0 <= s_2_11 <= 1
 0 <= s_2_12 <= 1
 0 <= s_2_13 <= 1
 0 <= s_2_14 <= 1
 0 <= s_2_15 <= 1
 0 <= s_2_16 <= 1
 0 <= s_2_17 <= 1
 0 <= s_2_18 <= 1
 0 <= s_2_19 <= 1
 0 <= s_3_10 <= 1
 0 <= s_3_11 <= 1
 0 <= s_3_12 <= 1
 0 <= s_3_13 <= 1
 0 <= s_3_14 <= 1
 0 <= s_3_15 <= 1
 0 <= s_3_16 <= 1
 0 <= s_3_17 <= 1
 0 <= s_3_18 <= 1
 0 <= s_3_19 <= 1
 0 <= s_4_10 <= 1
 0 <= s_4_11 <= 1
 0 <= s_4_12 <= 1
 0 <= s_4_13 <= 1
 0 <= s_4_14 <= 1
 0 <= s_4_15 <= 1
 0 <= s_4_16 <= 1
 0 <= s_4_17 <= 1
 0 <= s_4_18 <= 1
 0 <= s_4_19 <= 1
 0 <= s_5_10 <= 1
 0 <= s_5_11 <= 1
 0 <= s_5_12 <= 1
 0 <= s_5_13 <= 1
 0 <= s_5_14 <= 1
 0 <= s_5_15 <= 1
 0 <= s_5_16 <= 1
 0 <= s_5_17 <= 1
 0 <= s_5_18 <= 1
 0 <= s_5_19 <= 1
 0 <= s_6_10 <= 1
 0 <= s_6_11 <= 1
 0 <= s_6_12 <= 1
 0 <= s_6_13 <= 1
 0 <= s_6_14 <= 1
 0 <= s_6_15 <= 1
 0 <= s_6_16 <= 1
 0 <= s_6_17 <= 1
 0 <= s_6_18 <= 1
 0 <= s_6_19 <= 1
 0 <= s_7_10 <= 1
 0 <= s_7_11 <= 1
 0 <= s_7_12 <= 1
 0 <= s_7_13 <= 1
 0 <= s_7_14 <= 1
 0 <= s_7_15 <= 1
 0 <= s_7_16 <= 1
 0 <= s_7_17 <= 1
 0 <= s_7_18 <= 1
 0 <= s_7_19 <= 1
 0 <= s_8_10 <= 1
 0 <= s_8_11 <= 1
 0 <= s_8_12 <= 1
 0 <= s_8_13 <= 1
 0 <= s_8_14 <= 1
 0 <= s_8_15 <= 1
 0 <= s_8_16 <= 1
 0 <= s_8_17 <= 1
 0 <= s_8_18 <= 1
 0 <= s_8_19 <= 1
 0 <= s_9_10 <= 1
 0 <= s_9_11 <= 1
 0 <= s_9_12 <= 1
 0 <= s_9_13 <= 1
 0 <= s_9_14 <= 1
 0 <= s_9_15 <= 1
 0 <= s_9_16 <= 1
 0 <= s_9_17 <= 1
 0 <= s_9_18 <= 1
 0 <= s_9_19 <= 1
 0 <= s_10_20 <= 1
 0 <= s_10_21 <= 1
 0 <= s_10_22 <= 1
 0 <= s_10_23 <= 1
 0 <= s_10_24 <= 1
 0 <= s_10_25 <= 1
 0 <= s_10_26 <= 1
 0 <= s_10_27 <= 1
 0 <= s_10_28 <= 1
 0 <= s_10_29 <= 1
 0 <= s_11_20 <= 1
 0 <= s_11_21 <= 1
 0 <= s_11_22 <= 1
 0 <= s_11_23 <= 1
 0 <= s_11_24 <= 1
 0 <= s_11_25 <= 1
 0 <= s_11_26 <= 1
 0 <= s_11_27 <= 1
 0 <= s_11_28 <= 1
 0 <= s_11_29 <= 1
 0 <= s_12_20 <= 1
 0 <= s_12_21 <= 1
 0 <= s_12_22 <= 1
 0 <= s_12_23 <= 1
 0 <= s_12_24 <= 1
 0 <= s_12_25 <= 1
 0 <= s_12_26 <= 1
 0 <= s_12_27 <= 1
 0 <= s_12_28 <= 1
 0 <= s_12_29 <= 1
 0 <= s_13_20 <= 1
 0 <= s_13_21 <= 1
 0 <= s_13_22 <= 1
 0 <= s_13_23 <= 1
 0 <= s_13_24 <= 1
 0 <= s_13_25 <= 1
 0 <= s_13_26 <= 1
 0 <= s_13_27 <= 1
 0 <= s_13_28 <= 1
 0 <= s_13_29 <= 1
 0 <= s_14_20 <= 1
 0 <= s_14_21 <= 1
 0 <= s_14_22 <= 1
 0 <= s_14_23 <= 1
 0 <= s_14_24 <= 1
 0 <= s_14_25 <= 1
 0 <= s_14_26 <= 1
 0 <= s_14_27 <= 1
 0 <= s_14_28 <= 1
 0 <= s_14_29 <= 1
 0 <= s_15_20 <= 1
 0 <= s_15_21 <= 1
 0 <= s_15_22 <= 1
 0 <= s_15_23 <= 1
 0 <= s_15_24 <= 1
 0 <= s_15_25 <= 1
 0 <= s_15_26 <= 1
 0 <= s_15_27 <= 1
 0 <= s_15_28 <= 1
 0 <= s_15_29 <= 1
 0 <= s_16_20 <= 1
 0 <= s_16_21 <= 1
 0 <= s_16_22 <= 1
 0 <= s_16_23 <= 1
 0 <= s_16_24 <= 1
 0 <= s_16_25 <= 1
 0 <= s_16_26 <= 1
 0 <= s_16_27 <= 1
 0 <= s_16_28 <= 1
 0 <= s_16_29 <= 1
 0 <= s_17_20 <= 1
 0 <= s_17_21 <= 1
 0 <= s_17_22 <= 1
 0 <= s_17_23 <= 1
 0 <= s_17_24 <= 1
 0 <= s_17_25 <= 1
 0 <= s_17_26 <= 1
 0 <= s_17_27 <= 1
 0 <= s_17_28 <= 1
 0 <= s_17_29 <= 1
 0 <= s_18_20 <= 1
 0 <= s_18_21 <= 1
 0 <= s_18_22 <= 1
 0 <= s_18_23 <= 1
 0 <= s_18_24 <= 1
 0 <= s_18_25 <= 1
 0 <= s_18_26 <= 1
 0 <= s_18_27 <= 1
 0 <= s_18_28 <= 1
 0 <= s_18_29 <= 1
 0 <= s_19_20 <= 1
 0 <= s_19_21 <= 1
 0 <= s_19_22 <= 1
 0 <= s_19_23 <= 1
 0 <= s_19_24 <= 1
 0 <= s_19_25 <= 1
 0 <= s_19_26 <= 1
 0 <= s_19_27 <= 1
 0 <= s_19_28 <= 1
 0 <= s_19_29 <= 1
Binaries
 s_0_10  s_0_11  s_0_12  s_0_13  s_0_14  s_0_15  s_0_16  s_0_17  s_0_18 
 s_0_19  s_1_10  s_1_11  s_1_12  s_1_13  s_1_14  s_1_15  s_1_16  s_1_17 
 s_1_18  s_1_19  s_2_10  s_2_11  s_2_12  s_2_13  s_2_14  s_2_15  s_2_16 
 s_2_17  s_2_18  s_2_19  s_3_10  s_3_11  s_3_12  s_3_13  s_3_14  s_3_15 
 s_3_16  s_3_17  s_3_18  s_3_19  s_4_10  s_4_11  s_4_12  s_4_13  s_4_14 
 s_4_15  s_4_16  s_4_17  s_4_18  s_4_19  s_5_10  s_5_11  s_5_12  s_5_13 
 s_5_14  s_5_15  s_5_16  s_5_17  s_5_18  s_5_19  s_6_10  s_6_11  s_6_12 
 s_6_13  s_6_14  s_6_15  s_6_16  s_6_17  s_6_18  s_6_19  s_7_10  s_7_11 
 s_7_12  s_7_13  s_7_14  s_7_15  s_7_16  s_7_17  s_7_18  s_7_19  s_8_10 
 s_8_11  s_8_12  s_8_13  s_8_14  s_8_15  s_8_16  s_8_17  s_8_18  s_8_19 
 s_9_10  s_9_11  s_9_12  s_9_13  s_9_14  s_9_15  s_9_16  s_9_17  s_9_18 
 s_9_19  s_10_20  s_10_21  s_10_22  s_10_23  s_10_24  s_10_25  s_10_26 
 s_10_27  s_10_28  s_10_29  s_11_20  s_11_21  s_11_22  s_11_23  s_11_24 
 s_11_25  s_11_26  s_11_27  s_11_28  s_11_29  s_12_20  s_12_21  s_12_22 
 s_12_23  s_12_24  s_12_25  s_12_26  s_12_27  s_12_28  s_12_29  s_13_20 
 s_13_21  s_13_22  s_13_23  s_13_24  s_13_25  s_13_26  s_13_27  s_13_28 
 s_13_29  s_14_20  s_14_21  s_14_22  s_14_23  s_14_24  s_14_25  s_14_26 
 s_14_27  s_14_28  s_14_29  s_15_20  s_15_21  s_15_22  s_15_23  s_15_24 
 s_15_25  s_15_26  s_15_27  s_15_28  s_15_29  s_16_20  s_16_21  s_16_22 
 s_16_23  s_16_24  s_16_25  s_16_26  s_16_27  s_16_28  s_16_29  s_17_20 
 s_17_21  s_17_22  s_17_23  s_17_24  s_17_25  s_17_26  s_17_27  s_17_28 
 s_17_29  s_18_20  s_18_21  s_18_22  s_18_23  s_18_24  s_18_25  s_18_26 
 s_18_27  s_18_28  s_18_29  s_19_20  s_19_21  s_19_22  s_19_23  s_19_24 
 s_19_25  s_19_26  s_19_27  s_19_28  s_19_29 
End
